RT is False
Default write of storage_offers_DA.csv just to have a file (but constraint should be inactive)
Reading model...
...model read.
creating competitive generators file...
...competitive generators recorded.
Loading data...
.. day-ahead data with real-time VRE data read.
Compiling instance...
...instance created.
Creating Offer Mitigation (model will solve as dispatch if TRUE)...
Solving...

Welcome to IBM(R) ILOG(R) CPLEX(R) Interactive Optimizer 12.9.0.0
  with Simplex, Mixed Integer & Barrier Optimizers
5725-A06 5725-A29 5724-Y48 5724-Y49 5724-Y54 5724-Y55 5655-Y21
Copyright IBM Corp. 1988, 2019.  All Rights Reserved.

Type 'help' for a list of available commands.
Type 'help' followed by a command name for more
information on commands.

CPLEX> Logfile 'cplex.log' closed.
Logfile 'C:\Users\llavin\Desktop\test919\logs\tmpgebag0l1.cplex.log' open.
CPLEX> New value for parallel optimization mode: -1
CPLEX> New value for mixed integer optimality gap tolerance: 0.01
CPLEX> New value for integrality tolerance: 1e-09
CPLEX> New value for feasibility tolerance: 0.01
CPLEX> New value for deterministic time limit in ticks: 75000
CPLEX> Problem 'C:\Users\llavin\Desktop\test919\logs\tmpcbkn_z0x.pyomo.lp' read.
Read time = 0.05 sec. (3.04 ticks)
CPLEX> Problem name         : C:\Users\llavin\Desktop\test919\logs\tmpcbkn_z0x.pyomo.lp
Objective sense      : Minimize
Variables            :   26081  [Nneg: 1,  Box: 21616,  Free: 4464]
Objective nonzeros   :    2496
Linear constraints   :   27515  [Less: 14006,  Greater: 4416,  Equal: 9093]
  Nonzeros           :   89219
  RHS nonzeros       :   12267

Variables            : Min LB: -5000.000        Max UB: 1000000.       
Objective nonzeros   : Min   : 15.73158         Max   : 124.0997       
Linear constraints   :
  Nonzeros           : Min   : 0.8500000        Max   : 3000.000       
  RHS nonzeros       : Min   : 0.1750000        Max   : 5000.000       
CPLEX> CPXPARAM_Parallel                                -1
CPXPARAM_Simplex_Tolerances_Feasibility          0.01
CPXPARAM_DetTimeLimit                            75000
CPXPARAM_MIP_Tolerances_MIPGap                   0.01
CPXPARAM_MIP_Tolerances_Integrality              1.0000000000000001e-09
Parallel mode: opportunistic, using up to 32 threads for concurrent optimization.
Tried aggregator 1 time.
LP Presolve eliminated 21377 rows and 15485 columns.
Aggregator did 747 substitutions.
Reduced LP has 5391 rows, 9849 columns, and 31790 nonzeros.
Presolve time = 0.05 sec. (30.20 ticks)
Symmetry aggregator did 5563 additional substitutions.

Iteration log . . .
Iteration:     1   Dual objective     =             0.000000
Perturbation started.
Iteration:   101   Dual objective     =             0.000000
Iteration:   333   Dual objective     =             1.247782
Iteration:   612   Dual objective     =             1.964993
Iteration:   869   Dual objective     =             2.107723
Iteration:  1061   Dual objective     =             2.226889
Iteration:  1339   Dual objective     =             2.276637
Iteration:  1585   Dual objective     =             2.306035
Iteration:  1805   Dual objective     =             2.329134
Iteration:  2023   Dual objective     =          3448.549301
Iteration:  2228   Dual objective     =         10667.329199
Iteration:  2443   Dual objective     =         67390.351031
Iteration:  2755   Dual objective     =         76985.319876
Iteration:  3124   Dual objective     =         78927.192238
Removing perturbation.
Dual superbasis not built.
Using devex.

Primal simplex solved model.


Primal simplex - Optimal:  Objective =  7.8924799880e+04
Solution time =    0.17 sec.  Iterations = 1715 (1183)
Deterministic time = 79.27 ticks  (460.87 ticks/sec)

CPLEX> Solution written to file 'C:\Users\llavin\Desktop\test919\logs\tmpqin6as0o.cplex.sol'.
CPLEX> Exporting results... 
...storage offer mitigation file created
Converting model to MPEC...
...converted
NOTE: initial MIP solve with only storage competitive to get feasible solution
Solving...

Welcome to IBM(R) ILOG(R) CPLEX(R) Interactive Optimizer 12.9.0.0
  with Simplex, Mixed Integer & Barrier Optimizers
5725-A06 5725-A29 5724-Y48 5724-Y49 5724-Y54 5724-Y55 5655-Y21
Copyright IBM Corp. 1988, 2019.  All Rights Reserved.

Type 'help' for a list of available commands.
Type 'help' followed by a command name for more
information on commands.

CPLEX> Logfile 'cplex.log' closed.
Logfile 'C:\Users\llavin\Desktop\test919\logs\tmpimwnvkoa.cplex.log' open.
CPLEX> New value for parallel optimization mode: -1
CPLEX> New value for mixed integer optimality gap tolerance: 0.01
CPLEX> New value for integrality tolerance: 1e-09
CPLEX> New value for feasibility tolerance: 0.01
CPLEX> New value for deterministic time limit in ticks: 75000
CPLEX> Problem 'C:\Users\llavin\Desktop\test919\logs\tmpr2hl21ia.pyomo.lp' read.
Read time = 0.23 sec. (14.78 ticks)
CPLEX> Problem name         : C:\Users\llavin\Desktop\test919\logs\tmpr2hl21ia.pyomo.lp
Objective sense      : Maximize
Variables            :   53805  [Nneg: 1,  Box: 22000,  Free: 4464,
                                 Binary: 27340]
Objective nonzeros   :    9025
Linear constraints   :  123205  [Less: 41346,  Greater: 59096,  Equal: 22763]
  Nonzeros           :  291749
  RHS nonzeros       :   67487

Variables            : Min LB: -5000.000        Max UB: 1000000.       
Objective nonzeros   : Min   : 0.1750000        Max   : 2500.000       
Linear constraints   :
  Nonzeros           : Min   : 0.1750000        Max   : 1000000.       
  RHS nonzeros       : Min   : 0.1750000        Max   : 1000000.       
CPLEX> CPXPARAM_Parallel                                -1
CPXPARAM_Simplex_Tolerances_Feasibility          0.01
CPXPARAM_DetTimeLimit                            75000
CPXPARAM_MIP_Tolerances_MIPGap                   0.01
CPXPARAM_MIP_Tolerances_Integrality              1.0000000000000001e-09
Tried aggregator 3 times.
MIP Presolve eliminated 88650 rows and 18971 columns.
MIP Presolve added 3375 rows and 0 columns.
MIP Presolve modified 24866 coefficients.
Aggregator did 12985 substitutions.
Reduced MIP has 24945 rows, 21290 columns, and 71169 nonzeros.
Reduced MIP has 8415 binaries, 0 generals, 0 SOSs, and 0 indicators.
Presolve time = 0.30 sec. (173.40 ticks)
Probing fixed 375 vars, tightened 2846 bounds.
Probing time = 1.17 sec. (874.29 ticks)
Tried aggregator 2 times.
MIP Presolve eliminated 849 rows and 750 columns.
MIP Presolve modified 2209 coefficients.
Aggregator did 36 substitutions.
Reduced MIP has 24060 rows, 20504 columns, and 68613 nonzeros.
Reduced MIP has 8040 binaries, 0 generals, 0 SOSs, and 0 indicators.
Presolve time = 0.09 sec. (65.68 ticks)
Probing time = 0.03 sec. (15.51 ticks)
Clique table members: 6537.
MIP emphasis: balance optimality and feasibility.
MIP search method: dynamic search.
Parallel mode: opportunistic, using up to 32 threads.
Root relaxation solution time = 0.41 sec. (513.80 ticks)

        Nodes                                         Cuts/
   Node  Left     Objective  IInf  Best Integer    Best Bound    ItCnt     Gap

      0     0      -28.1876   687                    -28.1876     5762         
      0     5    infeasible                       Impl Bds: 1     5773         
Elapsed time = 7.55 sec. (4390.49 ticks, tree = 0.02 MB, solutions = 0)
    399    98     -176.6158     7                    -28.1876     6321         
    758   540    infeasible                          -28.1876    12136         
*   920   549      integral     0    -4621.1443      -28.1876    12180   99.39%
*  1026   527      integral     0    -4616.6797      -28.1876    11575   99.39%
   1139   507     -243.5078     2     -628.5303      -32.5852    13690   94.82%
   1555   378     -193.6043     1     -628.5303      -32.5852    15953   94.82%
   2066   824     -568.8034     3     -628.5303      -56.0499    18536   91.08%
   2624  1054     -193.6043     2     -628.5303      -57.4559    19561   90.86%
   3258  1255    infeasible           -628.5303      -59.3068    20592   90.56%
   3866  1888     -105.0282     1     -628.5303      -59.3068    24118   90.56%
   4470  1970     -189.8794     1     -628.5303      -60.6158    24497   90.36%
   7033  3536     -626.3742     3     -628.5303      -73.5471    32282   88.30%
Elapsed time = 23.98 sec. (7493.15 ticks, tree = 24.33 MB, solutions = 5)
   8222  5179    infeasible           -628.5303      -73.5471    45907   88.30%
   9824   303     -352.1216     4     -628.5303      -73.5471    47630   88.30%
  13826  2320        cutoff           -628.5303      -73.5471    61651   88.30%
  16889  4411     -603.7495     3     -628.5303      -73.5471    75143   88.30%
  20388  6568     -403.9249     1     -533.6450      -93.8774    90553   82.41%
* 20582  7289      integral     0     -533.6450      -93.8774    96209   82.41%
  24281  7812     -433.4704     3     -533.6450     -114.0460   102779   78.63%
  28197  2027     -153.4895     3     -207.7603     -129.8928   122755   37.48%
  32904  2562     -193.5417     2     -207.7603     -154.9183   140659   25.43%
  37264  3087     -191.8390     1     -207.7603     -169.3108   153023   18.51%
  40490  2541        cutoff           -207.7603     -198.5016   168937    4.46%
Elapsed time = 71.97 sec. (18719.54 ticks, tree = 9.20 MB, solutions = 10)
  44525   312     -205.1327     3     -207.7603     -201.9786   192272    2.78%

Implied bound cuts applied:  54
Flow cuts applied:  2
Mixed integer rounding cuts applied:  1
Gomory fractional cuts applied:  4

Root node processing (before b&c):
  Real time             =    6.38 sec. (4376.43 ticks)
Parallel b&c, 32 threads:
  Real time             =   68.25 sec. (15869.39 ticks)
  Sync time (average)   =    3.19 sec.
  Wait time (average)   =    0.19 sec.
                          ------------
Total (root+branch&cut) =   74.63 sec. (20245.82 ticks)

Solution pool: 10 solutions saved.

MIP - Integer optimal, tolerance (0.01/1e-06):  Objective = -2.0776032768e+02
Current MIP best bound = -2.0606521635e+02 (gap = 1.69511, 0.82%)
Solution time =   74.66 sec.  Iterations = 202128  Nodes = 45026 (93)
Deterministic time = 20245.97 ticks  (271.19 ticks/sec)

CPLEX> Incumbent solution written to file 'C:\Users\llavin\Desktop\test919\logs\tmpod8ycbds.cplex.sol'.
CPLEX> NOTE: no warmstart specified for MIP iteration, default behavior is true
NOTE: resolving with all competitive generators using storage-only solution to warmstart
Solving...

Welcome to IBM(R) ILOG(R) CPLEX(R) Interactive Optimizer 12.9.0.0
  with Simplex, Mixed Integer & Barrier Optimizers
5725-A06 5725-A29 5724-Y48 5724-Y49 5724-Y54 5724-Y55 5655-Y21
Copyright IBM Corp. 1988, 2019.  All Rights Reserved.

Type 'help' for a list of available commands.
Type 'help' followed by a command name for more
information on commands.

CPLEX> Logfile 'cplex.log' closed.
Logfile 'C:\Users\llavin\Desktop\test919\logs\tmp02zffitt.cplex.log' open.
CPLEX> New value for parallel optimization mode: -1
CPLEX> New value for mixed integer optimality gap tolerance: 0.01
CPLEX> New value for integrality tolerance: 1e-09
CPLEX> New value for feasibility tolerance: 0.01
CPLEX> New value for deterministic time limit in ticks: 75000
CPLEX> Problem 'C:\Users\llavin\Desktop\test919\logs\tmpuc9dfksq.pyomo.lp' read.
Read time = 0.23 sec. (14.81 ticks)
CPLEX> MIP start file 'C:\Users\llavin\Desktop\test919\logs\tmp3bfbwz55.cplex.mst' read.
CPLEX> Problem name         : C:\Users\llavin\Desktop\test919\logs\tmpuc9dfksq.pyomo.lp
Objective sense      : Maximize
Variables            :   54525  [Nneg: 1,  Box: 22720,  Free: 4464,
                                 Binary: 27340]
Objective nonzeros   :    9721
Linear constraints   :  123205  [Less: 41346,  Greater: 59096,  Equal: 22763]
  Nonzeros           :  291749
  RHS nonzeros       :   67487

Variables            : Min LB: -5000.000        Max UB: 1000000.       
Objective nonzeros   : Min   : 0.1750000        Max   : 2500.000       
Linear constraints   :
  Nonzeros           : Min   : 0.1750000        Max   : 1000000.       
  RHS nonzeros       : Min   : 0.1750000        Max   : 1000000.       
CPLEX> CPXPARAM_Parallel                                -1
CPXPARAM_Simplex_Tolerances_Feasibility          0.01
CPXPARAM_DetTimeLimit                            75000
CPXPARAM_MIP_Tolerances_MIPGap                   0.01
CPXPARAM_MIP_Tolerances_Integrality              1.0000000000000001e-09
Warning:  No solution found from 1 MIP starts.
Retaining values of one MIP start for possible repair.
Tried aggregator 3 times.
MIP Presolve eliminated 88650 rows and 19691 columns.
MIP Presolve added 3375 rows and 0 columns.
MIP Presolve modified 24866 coefficients.
Aggregator did 12985 substitutions.
Reduced MIP has 24945 rows, 21290 columns, and 71169 nonzeros.
Reduced MIP has 8415 binaries, 0 generals, 0 SOSs, and 0 indicators.
Presolve time = 0.28 sec. (173.76 ticks)
Probing fixed 375 vars, tightened 2846 bounds.
Probing time = 1.19 sec. (874.29 ticks)
Tried aggregator 2 times.
MIP Presolve eliminated 849 rows and 750 columns.
MIP Presolve modified 2209 coefficients.
Aggregator did 36 substitutions.
Reduced MIP has 24060 rows, 20504 columns, and 68613 nonzeros.
Reduced MIP has 8040 binaries, 0 generals, 0 SOSs, and 0 indicators.
Presolve time = 0.11 sec. (65.67 ticks)
Probing time = 0.05 sec. (15.51 ticks)
Clique table members: 6537.
MIP emphasis: balance optimality and feasibility.
MIP search method: dynamic search.
Parallel mode: opportunistic, using up to 32 threads.
Root relaxation solution time = 0.36 sec. (264.19 ticks)

        Nodes                                         Cuts/
   Node  Left     Objective  IInf  Best Integer    Best Bound    ItCnt     Gap

      0     0   171974.0424  1760                 171974.0424     5679         
      0     0   167905.7136   652                   Cuts: 726     6054         
      0     0   166858.5579   612                   Cuts: 278     6196         
      0     0   166722.2703   589                   Cuts: 176     6269         
      0     0   164178.1643   560                   Cuts: 129     6360         
      0     0   163837.1590   537                   Cuts: 159     6417         
      0     0   163819.4643   508                   Cuts: 109     6452         
      0     0   163790.5218   510                    Cuts: 87     6477         
      0     0   160298.9791   461                    Cuts: 90     6537         
      0     0   160203.2823   464                    Cuts: 92     6558         
      0     0   159979.3719   457                    Cuts: 94     6575         
      0     0   159979.3719   459                    Cuts: 92     6582         
      0     0   154188.6859   460                   Cuts: 104     6646         
      0     0   153819.8936   458                    Cuts: 96     6667         
      0     0   153778.0160   459                    Cuts: 91     6682         
      0     0   153742.6673   454                    Cuts: 81     6689         
      0     0   149332.9436   453                    Cuts: 82     6732         
      0     0   149301.7969   444                    Cuts: 78     6737         
      0     0   149300.8075   444                    Cuts: 75     6740         
Repair heuristic found nothing.
      0    34    95819.3334   387                    Cuts: 21     8794         
Elapsed time = 14.64 sec. (8640.59 ticks, tree = 0.21 MB, solutions = 0)
    416    51    72389.2561   370                 106223.5193     9183         
    771   361    28066.2515   301                 105937.0112    27346         
   1253   399    27110.3812   324                 105937.0112    34022         
   1920   778    infeasible                       105937.0112    41628         
   2587   983  -135986.2222   283                 105937.0112    45117         
   3182  1466    -2899.8855   201                 105937.0112    57119         
   3845  1896    -8596.5608   197                 105937.0112    75252         
   4477  2834      933.4418   132                 105937.0112   108016         
   5084  2615  -165785.4668   296                 105937.0112   104100         
*  7430+ 1803                        -3823.9903   105937.0112              --- 
Elapsed time = 31.34 sec. (11730.63 ticks, tree = 9.38 MB, solutions = 1)
   8349  1858        cutoff          -3823.9903      -28.1876   218371   99.26%
   9027    91        cutoff          -3823.9903      -29.8065   218819   99.22%
   9213   319        cutoff           -789.0230      -40.1252   221247   94.91%
  10614   340        cutoff           -789.0230      -52.9607   221586   93.29%
  12558   543     -127.5948     3     -789.0230      -52.9607   224425   93.29%
  14767  1406     -316.3206     4     -789.0230      -53.7730   231536   93.18%
  17061  2826     -143.2284     3     -789.0230      -79.2686   242304   89.95%
  19343  2742    infeasible           -789.0230      -86.5395   241899   89.03%
  21759  3822     -390.3301     3     -789.0230      -93.5191   249465   88.15%
  23565  4629     -162.6865     2     -789.0230      -95.5837   255859   87.89%
Elapsed time = 83.42 sec. (24722.99 ticks, tree = 40.66 MB, solutions = 2)
  23892  5899     -436.7443     2     -789.0230      -98.8273   265738   87.47%
  24229  7321     -202.1188     2     -789.0230     -105.0282   276527   86.69%
  25940  7772     -147.9443     2     -789.0230     -105.3703   279890   86.65%
  28521  7815     -435.6822     4     -789.0230     -105.3703   280154   86.65%
  30923  7901     -135.3531     1     -789.0230     -105.3703   280856   86.65%
  33260  2997     -147.9443     2     -214.6376     -127.5948   286361   40.55%
  35572  8597     -145.1576     3     -214.6376     -127.6380   285909   40.53%
  37857  3336     -156.7297     4     -214.6376     -127.6380   292096   40.53%
  40092  4457        cutoff           -214.6376     -127.6380   312257   40.53%
  42321  6696     -188.6211     1     -214.6376     -127.6380   340623   40.53%
Elapsed time = 128.56 sec. (34265.91 ticks, tree = 46.93 MB, solutions = 3)
  44607  6213     -192.6345     1     -214.6376     -132.0672   334891   38.47%
  47030  7844     -173.1966     1     -214.6376     -133.0124   354062   38.03%
  49527  6249     -167.3891     3     -214.6376     -134.7175   335336   37.23%
  51945  6970     -161.4264     3     -214.6376     -134.7591   343786   37.22%
  54067  8525     -192.6345     1     -214.6376     -135.3531   362398   36.94%
  55780  8591     -145.1576     3     -214.6376     -135.7375   363080   36.76%
  57189  8813        cutoff           -214.6376     -137.0356   365320   36.15%
  57969  9168     -181.8487     4     -214.6376     -137.0529   369400   36.15%
  58052  9195     -173.1966     1     -214.6376     -137.0529   369787   36.15%
  58234  9522     -156.7297     4     -214.6376     -137.0529   374563   36.15%
Elapsed time = 159.13 sec. (43817.96 ticks, tree = 69.42 MB, solutions = 3)
  58619 11031     -137.1017     4     -214.6376     -137.0529   395795   36.15%
  59245 11067     -156.4908     3     -214.6376     -137.0529   395699   36.15%
  60498 11011     -183.3473     4     -214.6376     -137.0529   396764   36.15%
  62390 10974        cutoff           -214.6376     -137.0529   396805   36.15%
  64609 11047     -162.6865     2     -214.6376     -137.0529   395705   36.15%
  66682 11086     -162.0821     4     -214.6376     -137.0529   396427   36.15%
  68298 11057     -167.3580     2     -214.6376     -137.0529   396242   36.15%
  69199 11069        cutoff           -214.6376     -137.0529   396571   36.15%
  69734 11492     -181.8487     4     -214.6376     -137.0529   402429   36.15%
  69920 11356     -149.1791     3     -214.6376     -137.0529   400844   36.15%
Elapsed time = 177.36 sec. (53364.32 ticks, tree = 85.37 MB, solutions = 3)
  70046 14803        cutoff           -214.6376     -137.1017   442160   36.12%
  71233    79     -170.6377     3     -214.6376     -137.1017   442725   36.12%
  73595  1156     -181.6297     6     -214.6376     -137.1017   451220   36.12%
  76995  1998     -187.8750     3     -214.6376     -137.1017   459795   36.12%
  80689  3660     -175.3752     6     -214.6376     -137.1017   477756   36.12%
  83826  6236     -172.0733     5     -214.6376     -137.1017   506291   36.12%
  86992  7147     -209.4588     3     -214.6376     -137.1017   517508   36.12%
  90385  9226     -190.6424     4     -214.6376     -137.1017   537750   36.12%
  94214 12721     -190.6424     4     -214.6376     -137.1017   564405   36.12%
  98505 12405     -116.5385     4     -214.6376     -137.1017   562014   36.12%
Elapsed time = 228.36 sec. (66058.39 ticks, tree = 71.63 MB, solutions = 3)
 102543 15277     -190.6424     4     -214.6376     -137.1017   583054   36.12%
 105793 17151        cutoff           -214.6376     -137.1017   596350   36.12%
 109207 20370     -116.5385     4     -214.6376     -137.1017   619451   36.12%
 113453 24941     -190.6424     4     -214.6376     -137.1017   652722   36.12%
 117857 23207     -191.9126     5     -214.6376     -137.1017   640322   36.12%
 121925 30110     -190.6424     4     -214.6376     -137.1017   688464   36.12%
 126252 30211     -192.7364     5     -214.6376     -137.1017   689187   36.12%
 130439 32149     -201.0976     4     -214.6376     -137.1017   702487   36.12%
 132553 35550     -190.6424     4     -214.6376     -137.1017   725516   36.12%

GUB cover cuts applied:  1
Clique cuts applied:  3
Implied bound cuts applied:  8
Flow cuts applied:  11
Mixed integer rounding cuts applied:  14
Gomory fractional cuts applied:  8

Root node processing (before b&c):
  Real time             =   12.47 sec. (8587.90 ticks)
Parallel b&c, 32 threads:
  Real time             =  249.23 sec. (66427.21 ticks)
  Sync time (average)   =    3.79 sec.
  Wait time (average)   =    0.32 sec.
                          ------------
Total (root+branch&cut) =  261.70 sec. (75015.11 ticks)

Solution pool: 3 solutions saved.

MIP - Deterministic time limit exceeded, integer feasible:  Objective = -2.1463763145e+02
Current MIP best bound = -1.3710169762e+02 (gap = 77.5359, 36.12%)
Solution time =  261.73 sec.  Iterations = 778031  Nodes = 132881 (43131)
Deterministic time = 75015.27 ticks  (286.61 ticks/sec)

CPLEX> Incumbent solution written to file 'C:\Users\llavin\Desktop\test919\logs\tmpzmbuvi1g.cplex.sol'.
CPLEX> Exporting results... 
